(set-logic ALL)
(set-option :produce-models true)
(declare-sort BoundSet 0)
(declare-sort UnboundSet 0)
(declare-fun IsThoughtFlat (BoundSet) Bool)
(declare-fun IsFlat (BoundSet) Bool)
(assert (not (=> (and (exists ((a BoundSet)) (IsThoughtFlat a)) (and (forall ((d BoundSet)) (=> (IsThoughtFlat d) (IsFlat d))) (forall ((e BoundSet)) (=> (IsFlat e) (IsThoughtFlat e))))) (exists ((a BoundSet)) (IsFlat a)))))
(check-sat)
(get-model)